Welcome to the CBC MILP Solver 
Version: Trunk
Build Date: Apr 16 2020 

Starting solution of the Linear programming relaxation problem using Primal Simplex

Using Python-MIP package version 1.8.1
Machines:  3 Jobs:  3
Order: 
Job  0 : machine 1 ( 7 ) machine 2 ( 7 ) machine 0 ( 1 ) 
Job  1 : machine 1 ( 4 ) machine 0 ( 3 ) machine 2 ( 7 ) 
Job  2 : machine 1 ( 7 ) machine 2 ( 6 ) machine 0 ( 2 ) 
K:  33
Job  0 , e: machine  0 ( 14 ) machine  1 ( 0 ) machine  2 ( 7 ) 
Job  1 , e: machine  0 ( 4 ) machine  1 ( 0 ) machine  2 ( 7 ) 
Job  2 , e: machine  0 ( 13 ) machine  1 ( 0 ) machine  2 ( 7 ) 
Job  0 , f: machine  0 ( 0 ) machine  1 ( 8 ) machine  2 ( 1 ) 
Job  1 , f: machine  0 ( 7 ) machine  1 ( 10 ) machine  2 ( 0 ) 
Job  2 , f: machine  0 ( 0 ) machine  1 ( 8 ) machine  2 ( 2 ) 
EST and LST:
Job: 0 Machine: 0 EST: 14 LST: 32
Job: 0 Machine: 1 EST: 0 LST: 18
Job: 0 Machine: 2 EST: 7 LST: 25
Job: 1 Machine: 0 EST: 4 LST: 23
Job: 1 Machine: 1 EST: 0 LST: 19
Job: 1 Machine: 2 EST: 7 LST: 26
Job: 2 Machine: 0 EST: 13 LST: 31
Job: 2 Machine: 1 EST: 0 LST: 18
Job: 2 Machine: 2 EST: 7 LST: 25
Order:
Job: 0 Machine: 0 = 2 
Job: 0 Machine: 1 = 0 
Job: 0 Machine: 2 = 1 
Job: 1 Machine: 0 = 1 
Job: 1 Machine: 1 = 0 
Job: 1 Machine: 2 = 2 
Job: 2 Machine: 0 = 2 
Job: 2 Machine: 1 = 0 
Job: 2 Machine: 2 = 1 
Distances:
Job 0, Machine 1 -> Machine 2: distance 7
Job 0, Machine 1 -> Machine 0: distance 14
Job 0, Machine 2 -> Machine 0: distance 7
Job 1, Machine 1 -> Machine 0: distance 4
Job 1, Machine 1 -> Machine 2: distance 7
Job 1, Machine 0 -> Machine 2: distance 3
Job 2, Machine 1 -> Machine 2: distance 7
Job 2, Machine 1 -> Machine 0: distance 13
Job 2, Machine 2 -> Machine 0: distance 6
McCormic linearization
14.0 13.0 2
0.0 0.0 4
0.0 0.0 7
0.0 0.0 7
7.0 7.0 7
7.0 7.0 6
7.0 7.0 6
[(0, 1), (1, 2), (0, 0), (0, 2), (2, 1), (2, 0), (1, 1)]
obj:  0.0
solutions:  1
+ 0.14285714285714285x(0,1) + 0.14285714285714285x(2,1) 
C:  18.499999999999996
x(0,0) = 17.50	 x(0,1) = 3.50	 x(0,2) = 10.50	 
x(1,0) = 8.50	 x(1,1) = 4.50	 x(1,2) = 11.50	 
x(2,0) = 16.50	 x(2,1) = 3.50	 x(2,2) = 10.50	 
y(0,1,0) = 0.00	 y(1,0,0) = 1.00	 
y(0,2,0) = 0.90	 y(2,0,0) = 0.10	 
y(1,2,0) = 0.59	 y(2,1,0) = 0.41	 
y(0,1,1) = 0.22	 y(1,0,1) = 0.78	 
y(0,2,1) = 0.72	 y(2,0,1) = 0.28	 
y(1,2,1) = 0.36	 y(2,1,1) = 0.64	 
y(0,1,2) = 0.76	 y(1,0,2) = 0.24	 
y(0,2,2) = 0.42	 y(2,0,2) = 0.58	 
y(1,2,2) = 0.50	 y(2,1,2) = 0.50	 
17.499999999999996 16.499999999999996 2
4.499999999999996 3.5000000000000053 7
11.499999999999995 10.5 6
obj:  0.638095238095238
solutions:  1
+ 0.06666666666666667x(0,1) + 0.06666666666666667x(2,1) + 0.03809523809523809x(1,1) 
[(0, 1), (1, 2), (0, 0), (0, 2), (2, 1), (2, 0), (1, 1)]
cliques:  1 mip: 10
C:  21.999999999999996
x(0,0) = 17.83	 x(0,1) = 3.83	 x(0,2) = 10.83	 
x(1,0) = 11.29	 x(1,1) = 7.29	 x(1,2) = 15.00	 
x(2,0) = 20.00	 x(2,1) = 7.00	 x(2,2) = 14.00	 
y(0,1,0) = 0.00	 y(1,0,0) = 1.00	 
y(0,2,0) = 0.93	 y(2,0,0) = 0.07	 
y(1,2,0) = 0.46	 y(2,1,0) = 0.54	 
y(0,1,1) = 0.86	 y(1,0,1) = 0.14	 
y(0,2,1) = 0.45	 y(2,0,1) = 0.55	 
y(1,2,1) = 0.27	 y(2,1,1) = 0.73	 
y(0,1,2) = 0.53	 y(1,0,2) = 0.47	 
y(0,2,2) = 0.38	 y(2,0,2) = 0.62	 
y(1,2,2) = 0.69	 y(2,1,2) = 0.31	 
7.291666666666674 7.000000000000003 7
14.999999999999995 14.000000000000002 6
obj:  0.9700854700854701
solutions:  1
+ 0.02564102564102565x(1,2) + 0.021978021978021983x(2,2) + 0.02564102564102564x(0,2) 
[(0, 1), (1, 2), (2, 1), (1, 1), (2, 2), (0, 2)]
cliques:  1 mip: 30
C:  22.7525
x(0,0) = 20.10	 x(0,1) = 5.89	 x(0,2) = 13.10	 
x(1,0) = 10.25	 x(1,1) = 6.25	 x(1,2) = 13.25	 
x(2,0) = 20.75	 x(2,1) = 5.53	 x(2,2) = 14.75	 
y(0,1,0) = 0.00	 y(1,0,0) = 1.00	 
y(0,2,0) = 0.82	 y(2,0,0) = 0.17	 
y(1,2,0) = 0.75	 y(2,1,0) = 0.25	 
y(0,1,1) = 0.73	 y(1,0,1) = 0.27	 
y(0,2,1) = 0.27	 y(2,0,1) = 0.73	 
y(1,2,1) = 0.68	 y(2,1,1) = 0.32	 
y(0,1,2) = 0.28	 y(1,0,2) = 0.72	 
y(0,2,2) = 0.59	 y(2,0,2) = 0.41	 
y(1,2,2) = 0.31	 y(2,1,2) = 0.69	 
5.892954545454557 5.534188311688295 7
6.25250000000001 5.534188311688295 7
obj:  1.0
erro
[(0, 1), (1, 2), (0, 0), (0, 2), (2, 1), (2, 0), (1, 1)]
cliques:  0 mip: 38
C:  24.18354298021384
x(0,0) = 22.56	 x(0,1) = 4.61	 x(0,2) = 15.56	 
x(1,0) = 7.02	 x(1,1) = 3.02	 x(1,2) = 10.02	 
x(2,0) = 22.18	 x(2,1) = 8.66	 x(2,2) = 15.66	 
y(0,1,0) = 0.00	 y(1,0,0) = 1.00	 
y(0,2,0) = 0.31	 y(2,0,0) = 0.69	 
y(1,2,0) = 0.73	 y(2,1,0) = 0.27	 
y(0,1,1) = 0.10	 y(1,0,1) = 0.90	 
y(0,2,1) = 0.65	 y(2,0,1) = 0.35	 
y(1,2,1) = 0.70	 y(2,1,1) = 0.30	 
y(0,1,2) = 0.10	 y(1,0,2) = 0.90	 
y(0,2,2) = 0.25	 y(2,0,2) = 0.75	 
y(1,2,2) = 0.90	 y(2,1,2) = 0.10	 
22.556961084580166 22.183542980213836 2
4.613474443155967 3.01899333872425 4
15.556961084580173 10.01899333872425 7
obj:  1.0000000000000244
erro
[(0, 1), (1, 2), (0, 0), (0, 2), (2, 1), (2, 0), (1, 1)]
cliques:  0 mip: 40
C:  24.99999505401991
x(0,0) = 22.73	 x(0,1) = 7.91	 x(0,2) = 15.73	 
x(1,0) = 5.97	 x(1,1) = 1.97	 x(1,2) = 8.97	 
x(2,0) = 23.00	 x(2,1) = 5.97	 x(2,2) = 16.69	 
y(0,1,0) = 0.00	 y(1,0,0) = 1.00	 
y(0,2,0) = 0.64	 y(2,0,0) = 0.36	 
y(1,2,0) = 0.82	 y(2,1,0) = 0.18	 
y(0,1,1) = 0.00	 y(1,0,1) = 1.00	 
y(0,2,1) = 0.30	 y(2,0,1) = 0.70	 
y(1,2,1) = 1.00	 y(2,1,1) = 0.00	 
y(0,1,2) = 0.21	 y(1,0,2) = 0.79	 
y(0,2,2) = 0.76	 y(2,0,2) = 0.24	 
y(1,2,2) = 0.94	 y(2,1,2) = 0.06	 
7.905003511086393 5.969543220217752 7
15.726094410696914 8.969543220217771 7
obj:  0.9999999999999999
erro
[(0, 1), (1, 2), (0, 0), (2, 1), (2, 0), (2, 2), (0, 2)]
cliques:  0 mip: 34
C:  24.999995054019916
x(0,0) = 24.00	 x(0,1) = 9.61	 x(0,2) = 16.61	 
x(1,0) = 7.31	 x(1,1) = 3.10	 x(1,2) = 11.29	 
x(2,0) = 22.00	 x(2,1) = 3.61	 x(2,2) = 12.95	 
y(0,1,0) = 0.00	 y(1,0,0) = 1.00	 
y(0,2,0) = 0.00	 y(2,0,0) = 1.00	 
y(1,2,0) = 0.70	 y(2,1,0) = 0.30	 
y(0,1,1) = 0.00	 y(1,0,1) = 1.00	 
y(0,2,1) = 0.04	 y(2,0,1) = 0.96	 
y(1,2,1) = 0.53	 y(2,1,1) = 0.47	 
y(0,1,2) = 0.06	 y(1,0,2) = 0.94	 
y(0,2,2) = 0.18	 y(2,0,2) = 0.82	 
y(1,2,2) = 0.56	 y(2,1,2) = 0.44	 
9.614036537339883 3.614336824603427 7
16.614036537337 11.286523442962961 7
16.614036537337 12.949346689650039 6
obj:  0.9999999999999998
erro
[(0, 1), (1, 2), (2, 1), (2, 2), (0, 2)]
cliques:  0 mip: 37
C:  25.028004947520607
x(0,0) = 24.03	 x(0,1) = 8.41	 x(0,2) = 15.41	 
x(1,0) = 10.20	 x(1,1) = 6.20	 x(1,2) = 14.98	 
x(2,0) = 22.03	 x(2,1) = 3.05	 x(2,2) = 10.05	 
y(0,1,0) = 0.00	 y(1,0,0) = 1.00	 
y(0,2,0) = 0.00	 y(2,0,0) = 1.00	 
y(1,2,0) = 0.51	 y(2,1,0) = 0.49	 
y(0,1,1) = 0.08	 y(1,0,1) = 0.92	 
y(0,2,1) = 0.07	 y(2,0,1) = 0.93	 
y(1,2,1) = 0.43	 y(2,1,1) = 0.57	 
y(0,1,2) = 0.27	 y(1,0,2) = 0.73	 
y(0,2,2) = 0.03	 y(2,0,2) = 0.97	 
y(1,2,2) = 0.04	 y(2,1,2) = 0.96	 
8.409451827500456 6.195362610571361 4
8.409451827500456 3.050340966458763 7
6.195362610571361 3.050340966458763 7
15.409451827500455 14.97597020124917 7
15.409451827500455 10.050340966458762 6
14.97597020124917 10.050340966458762 6
obj:  0.9999999999999997
erro
[(0, 1), (1, 2), (2, 1), (1, 1), (2, 2), (0, 2)]
cliques:  0 mip: 36
C:  25.059756548492036
x(0,0) = 24.06	 x(0,1) = 9.23	 x(0,2) = 16.23	 
x(1,0) = 9.84	 x(1,1) = 5.84	 x(1,2) = 12.84	 
x(2,0) = 22.06	 x(2,1) = 2.44	 x(2,2) = 11.59	 
y(0,1,0) = 0.00	 y(1,0,0) = 1.00	 
y(0,2,0) = 0.00	 y(2,0,0) = 1.00	 
y(1,2,0) = 0.58	 y(2,1,0) = 0.42	 
y(0,1,1) = 0.03	 y(1,0,1) = 0.97	 
y(0,2,1) = 0.01	 y(2,0,1) = 0.99	 
y(1,2,1) = 0.42	 y(2,1,1) = 0.58	 
y(0,1,2) = 0.14	 y(1,0,2) = 0.86	 
y(0,2,2) = 0.06	 y(2,0,2) = 0.94	 
y(1,2,2) = 0.20	 y(2,1,2) = 0.80	 
9.22668445641831 5.836663522071137 4
9.22668445641831 2.4380792452553286 7
5.836663522071137 2.4380792452553286 7
16.226684456418308 12.836663522071136 7
16.226684456418308 11.592760691762313 6
12.836663522071136 11.592760691762313 6
obj:  1.0000000000000002
erro
[(0, 1), (1, 2), (2, 1), (1, 1), (2, 2), (0, 2)]
cliques:  0 mip: 40
C:  25.99998411340893
x(0,0) = 24.84	 x(0,1) = 6.26	 x(0,2) = 17.84	 
x(1,0) = 8.54	 x(1,1) = 2.26	 x(1,2) = 11.54	 
x(2,0) = 21.45	 x(2,1) = 7.45	 x(2,2) = 14.45	 
y(0,1,0) = 0.00	 y(1,0,0) = 1.00	 
y(0,2,0) = 0.08	 y(2,0,0) = 0.92	 
y(1,2,0) = 0.59	 y(2,1,0) = 0.41	 
y(0,1,1) = 0.00	 y(1,0,1) = 1.00	 
y(0,2,1) = 0.33	 y(2,0,1) = 0.67	 
y(1,2,1) = 0.65	 y(2,1,1) = 0.35	 
y(0,1,2) = 0.03	 y(1,0,2) = 0.97	 
y(0,2,2) = 0.11	 y(2,0,2) = 0.89	 
y(1,2,2) = 0.37	 y(2,1,2) = 0.63	 
17.837209216898678 11.542567101776465 7
17.837209216898678 14.446853286311136 6
obj:  1.0708408569545524
erro
[(0, 1), (1, 2), (2, 1), (2, 2), (0, 2)]
cliques:  0 mip: 39
C:  25.99998411340893
x(0,0) = 24.84	 x(0,1) = 6.26	 x(0,2) = 17.84	 
x(1,0) = 8.54	 x(1,1) = 2.26	 x(1,2) = 11.54	 
x(2,0) = 21.45	 x(2,1) = 7.45	 x(2,2) = 14.45	 
y(0,1,0) = 0.00	 y(1,0,0) = 1.00	 
y(0,2,0) = 0.08	 y(2,0,0) = 0.92	 
y(1,2,0) = 0.59	 y(2,1,0) = 0.41	 
y(0,1,1) = 0.00	 y(1,0,1) = 1.00	 
y(0,2,1) = 0.33	 y(2,0,1) = 0.67	 
y(1,2,1) = 0.65	 y(2,1,1) = 0.35	 
y(0,1,2) = 0.03	 y(1,0,2) = 0.97	 
y(0,2,2) = 0.11	 y(2,0,2) = 0.89	 
y(1,2,2) = 0.37	 y(2,1,2) = 0.63	 
17.837209216898678 11.542567101776465 7
17.837209216898678 14.446853286311136 6
obj:  1.0708408569545524
erro
[(0, 1), (1, 2), (2, 1), (2, 2), (0, 2)]
cliques:  0 mip: 39
C:  25.99998411340893
x(0,0) = 24.84	 x(0,1) = 6.26	 x(0,2) = 17.84	 
x(1,0) = 8.54	 x(1,1) = 2.26	 x(1,2) = 11.54	 
x(2,0) = 21.45	 x(2,1) = 7.45	 x(2,2) = 14.45	 
y(0,1,0) = 0.00	 y(1,0,0) = 1.00	 
y(0,2,0) = 0.08	 y(2,0,0) = 0.92	 
y(1,2,0) = 0.59	 y(2,1,0) = 0.41	 
y(0,1,1) = 0.00	 y(1,0,1) = 1.00	 
y(0,2,1) = 0.33	 y(2,0,1) = 0.67	 
y(1,2,1) = 0.65	 y(2,1,1) = 0.35	 
y(0,1,2) = 0.03	 y(1,0,2) = 0.97	 
y(0,2,2) = 0.11	 y(2,0,2) = 0.89	 
y(1,2,2) = 0.37	 y(2,1,2) = 0.63	 
17.837209216898678 11.542567101776465 7
17.837209216898678 14.446853286311136 6
obj:  1.0708408569545524
erro
[(0, 1), (1, 2), (2, 1), (2, 2), (0, 2)]
cliques:  0 mip: 39
C:  25.99998411340893
x(0,0) = 24.84	 x(0,1) = 6.26	 x(0,2) = 17.84	 
x(1,0) = 8.54	 x(1,1) = 2.26	 x(1,2) = 11.54	 
x(2,0) = 21.45	 x(2,1) = 7.45	 x(2,2) = 14.45	 
y(0,1,0) = 0.00	 y(1,0,0) = 1.00	 
y(0,2,0) = 0.08	 y(2,0,0) = 0.92	 
y(1,2,0) = 0.59	 y(2,1,0) = 0.41	 
y(0,1,1) = 0.00	 y(1,0,1) = 1.00	 
y(0,2,1) = 0.33	 y(2,0,1) = 0.67	 
y(1,2,1) = 0.65	 y(2,1,1) = 0.35	 
y(0,1,2) = 0.03	 y(1,0,2) = 0.97	 
y(0,2,2) = 0.11	 y(2,0,2) = 0.89	 
y(1,2,2) = 0.37	 y(2,1,2) = 0.63	 
17.837209216898678 11.542567101776465 7
17.837209216898678 14.446853286311136 6
obj:  1.0708408569545524
erro
[(0, 1), (1, 2), (2, 1), (2, 2), (0, 2)]
cliques:  0 mip: 39
C:  25.99998411340893
x(0,0) = 24.84	 x(0,1) = 6.26	 x(0,2) = 17.84	 
x(1,0) = 8.54	 x(1,1) = 2.26	 x(1,2) = 11.54	 
x(2,0) = 21.45	 x(2,1) = 7.45	 x(2,2) = 14.45	 
y(0,1,0) = 0.00	 y(1,0,0) = 1.00	 
y(0,2,0) = 0.08	 y(2,0,0) = 0.92	 
y(1,2,0) = 0.59	 y(2,1,0) = 0.41	 
y(0,1,1) = 0.00	 y(1,0,1) = 1.00	 
y(0,2,1) = 0.33	 y(2,0,1) = 0.67	 
y(1,2,1) = 0.65	 y(2,1,1) = 0.35	 
y(0,1,2) = 0.03	 y(1,0,2) = 0.97	 
y(0,2,2) = 0.11	 y(2,0,2) = 0.89	 
y(1,2,2) = 0.37	 y(2,1,2) = 0.63	 
17.837209216898678 11.542567101776465 7
17.837209216898678 14.446853286311136 6
obj:  1.0708408569545524
erro
[(0, 1), (1, 2), (2, 1), (2, 2), (0, 2)]
cliques:  0 mip: 39
C:  25.99998411340893
x(0,0) = 24.84	 x(0,1) = 6.26	 x(0,2) = 17.84	 
x(1,0) = 8.54	 x(1,1) = 2.26	 x(1,2) = 11.54	 
x(2,0) = 21.45	 x(2,1) = 7.45	 x(2,2) = 14.45	 
y(0,1,0) = 0.00	 y(1,0,0) = 1.00	 
y(0,2,0) = 0.08	 y(2,0,0) = 0.92	 
y(1,2,0) = 0.59	 y(2,1,0) = 0.41	 
y(0,1,1) = 0.00	 y(1,0,1) = 1.00	 
y(0,2,1) = 0.33	 y(2,0,1) = 0.67	 
y(1,2,1) = 0.65	 y(2,1,1) = 0.35	 
y(0,1,2) = 0.03	 y(1,0,2) = 0.97	 
y(0,2,2) = 0.11	 y(2,0,2) = 0.89	 
y(1,2,2) = 0.37	 y(2,1,2) = 0.63	 
17.837209216898678 11.542567101776465 7
17.837209216898678 14.446853286311136 6
obj:  1.0708408569545524
erro
[(0, 1), (1, 2), (2, 1), (2, 2), (0, 2)]
cliques:  0 mip: 39
C:  25.99998411340893
x(0,0) = 24.84	 x(0,1) = 6.26	 x(0,2) = 17.84	 
x(1,0) = 8.54	 x(1,1) = 2.26	 x(1,2) = 11.54	 
x(2,0) = 21.45	 x(2,1) = 7.45	 x(2,2) = 14.45	 
y(0,1,0) = 0.00	 y(1,0,0) = 1.00	 
y(0,2,0) = 0.08	 y(2,0,0) = 0.92	 
y(1,2,0) = 0.59	 y(2,1,0) = 0.41	 
y(0,1,1) = 0.00	 y(1,0,1) = 1.00	 
y(0,2,1) = 0.33	 y(2,0,1) = 0.67	 
y(1,2,1) = 0.65	 y(2,1,1) = 0.35	 
y(0,1,2) = 0.03	 y(1,0,2) = 0.97	 
y(0,2,2) = 0.11	 y(2,0,2) = 0.89	 
y(1,2,2) = 0.37	 y(2,1,2) = 0.63	 
17.837209216898678 11.542567101776465 7
17.837209216898678 14.446853286311136 6
obj:  1.0708408569545524
erro
[(0, 1), (1, 2), (2, 1), (2, 2), (0, 2)]
cliques:  0 mip: 39
C:  25.99998411340893
x(0,0) = 24.84	 x(0,1) = 6.26	 x(0,2) = 17.84	 
x(1,0) = 8.54	 x(1,1) = 2.26	 x(1,2) = 11.54	 
x(2,0) = 21.45	 x(2,1) = 7.45	 x(2,2) = 14.45	 
y(0,1,0) = 0.00	 y(1,0,0) = 1.00	 
y(0,2,0) = 0.08	 y(2,0,0) = 0.92	 
y(1,2,0) = 0.59	 y(2,1,0) = 0.41	 
y(0,1,1) = 0.00	 y(1,0,1) = 1.00	 
y(0,2,1) = 0.33	 y(2,0,1) = 0.67	 
y(1,2,1) = 0.65	 y(2,1,1) = 0.35	 
y(0,1,2) = 0.03	 y(1,0,2) = 0.97	 
y(0,2,2) = 0.11	 y(2,0,2) = 0.89	 
y(1,2,2) = 0.37	 y(2,1,2) = 0.63	 
17.837209216898678 11.542567101776465 7
17.837209216898678 14.446853286311136 6
obj:  1.0708408569545524
erro
[(0, 1), (1, 2), (2, 1), (2, 2), (0, 2)]
cliques:  0 mip: 39
C:  25.99998411340893
x(0,0) = 24.84	 x(0,1) = 6.26	 x(0,2) = 17.84	 
x(1,0) = 8.54	 x(1,1) = 2.26	 x(1,2) = 11.54	 
x(2,0) = 21.45	 x(2,1) = 7.45	 x(2,2) = 14.45	 
y(0,1,0) = 0.00	 y(1,0,0) = 1.00	 
y(0,2,0) = 0.08	 y(2,0,0) = 0.92	 
y(1,2,0) = 0.59	 y(2,1,0) = 0.41	 
y(0,1,1) = 0.00	 y(1,0,1) = 1.00	 
y(0,2,1) = 0.33	 y(2,0,1) = 0.67	 
y(1,2,1) = 0.65	 y(2,1,1) = 0.35	 
y(0,1,2) = 0.03	 y(1,0,2) = 0.97	 
y(0,2,2) = 0.11	 y(2,0,2) = 0.89	 
y(1,2,2) = 0.37	 y(2,1,2) = 0.63	 
17.837209216898678 11.542567101776465 7
17.837209216898678 14.446853286311136 6
obj:  1.0708408569545524
erro
[(0, 1), (1, 2), (2, 1), (2, 2), (0, 2)]
cliques:  0 mip: 39
C:  25.99998411340893
x(0,0) = 24.84	 x(0,1) = 6.26	 x(0,2) = 17.84	 
x(1,0) = 8.54	 x(1,1) = 2.26	 x(1,2) = 11.54	 
x(2,0) = 21.45	 x(2,1) = 7.45	 x(2,2) = 14.45	 
y(0,1,0) = 0.00	 y(1,0,0) = 1.00	 
y(0,2,0) = 0.08	 y(2,0,0) = 0.92	 
y(1,2,0) = 0.59	 y(2,1,0) = 0.41	 
y(0,1,1) = 0.00	 y(1,0,1) = 1.00	 
y(0,2,1) = 0.33	 y(2,0,1) = 0.67	 
y(1,2,1) = 0.65	 y(2,1,1) = 0.35	 
y(0,1,2) = 0.03	 y(1,0,2) = 0.97	 
y(0,2,2) = 0.11	 y(2,0,2) = 0.89	 
y(1,2,2) = 0.37	 y(2,1,2) = 0.63	 
17.837209216898678 11.542567101776465 7
17.837209216898678 14.446853286311136 6
obj:  1.0708408569545524
erro
[(0, 1), (1, 2), (2, 1), (2, 2), (0, 2)]
cliques:  0 mip: 39
C:  25.99998411340893
x(0,0) = 24.84	 x(0,1) = 6.26	 x(0,2) = 17.84	 
x(1,0) = 8.54	 x(1,1) = 2.26	 x(1,2) = 11.54	 
x(2,0) = 21.45	 x(2,1) = 7.45	 x(2,2) = 14.45	 
y(0,1,0) = 0.00	 y(1,0,0) = 1.00	 
y(0,2,0) = 0.08	 y(2,0,0) = 0.92	 
y(1,2,0) = 0.59	 y(2,1,0) = 0.41	 
y(0,1,1) = 0.00	 y(1,0,1) = 1.00	 
y(0,2,1) = 0.33	 y(2,0,1) = 0.67	 
y(1,2,1) = 0.65	 y(2,1,1) = 0.35	 
y(0,1,2) = 0.03	 y(1,0,2) = 0.97	 
y(0,2,2) = 0.11	 y(2,0,2) = 0.89	 
y(1,2,2) = 0.37	 y(2,1,2) = 0.63	 
17.837209216898678 11.542567101776465 7
17.837209216898678 14.446853286311136 6
obj:  1.0708408569545524
erro
[(0, 1), (1, 2), (2, 1), (2, 2), (0, 2)]
cliques:  0 mip: 39
C:  25.99998411340893
x(0,0) = 24.84	 x(0,1) = 6.26	 x(0,2) = 17.84	 
x(1,0) = 8.54	 x(1,1) = 2.26	 x(1,2) = 11.54	 
x(2,0) = 21.45	 x(2,1) = 7.45	 x(2,2) = 14.45	 
y(0,1,0) = 0.00	 y(1,0,0) = 1.00	 
y(0,2,0) = 0.08	 y(2,0,0) = 0.92	 
y(1,2,0) = 0.59	 y(2,1,0) = 0.41	 
y(0,1,1) = 0.00	 y(1,0,1) = 1.00	 
y(0,2,1) = 0.33	 y(2,0,1) = 0.67	 
y(1,2,1) = 0.65	 y(2,1,1) = 0.35	 
y(0,1,2) = 0.03	 y(1,0,2) = 0.97	 
y(0,2,2) = 0.11	 y(2,0,2) = 0.89	 
y(1,2,2) = 0.37	 y(2,1,2) = 0.63	 
17.837209216898678 11.542567101776465 7
17.837209216898678 14.446853286311136 6
obj:  1.0708408569545524
erro
[(0, 1), (1, 2), (2, 1), (2, 2), (0, 2)]
cliques:  0 mip: 39
C:  25.99998411340893
x(0,0) = 24.84	 x(0,1) = 6.26	 x(0,2) = 17.84	 
x(1,0) = 8.54	 x(1,1) = 2.26	 x(1,2) = 11.54	 
x(2,0) = 21.45	 x(2,1) = 7.45	 x(2,2) = 14.45	 
y(0,1,0) = 0.00	 y(1,0,0) = 1.00	 
y(0,2,0) = 0.08	 y(2,0,0) = 0.92	 
y(1,2,0) = 0.59	 y(2,1,0) = 0.41	 
y(0,1,1) = 0.00	 y(1,0,1) = 1.00	 
y(0,2,1) = 0.33	 y(2,0,1) = 0.67	 
y(1,2,1) = 0.65	 y(2,1,1) = 0.35	 
y(0,1,2) = 0.03	 y(1,0,2) = 0.97	 
y(0,2,2) = 0.11	 y(2,0,2) = 0.89	 
y(1,2,2) = 0.37	 y(2,1,2) = 0.63	 
17.837209216898678 11.542567101776465 7
17.837209216898678 14.446853286311136 6
obj:  1.0708408569545524
erro
[(0, 1), (1, 2), (2, 1), (2, 2), (0, 2)]
cliques:  0 mip: 39
C:  25.99998411340893
x(0,0) = 24.84	 x(0,1) = 6.26	 x(0,2) = 17.84	 
x(1,0) = 8.54	 x(1,1) = 2.26	 x(1,2) = 11.54	 
x(2,0) = 21.45	 x(2,1) = 7.45	 x(2,2) = 14.45	 
y(0,1,0) = 0.00	 y(1,0,0) = 1.00	 
y(0,2,0) = 0.08	 y(2,0,0) = 0.92	 
y(1,2,0) = 0.59	 y(2,1,0) = 0.41	 
y(0,1,1) = 0.00	 y(1,0,1) = 1.00	 
y(0,2,1) = 0.33	 y(2,0,1) = 0.67	 
y(1,2,1) = 0.65	 y(2,1,1) = 0.35	 
y(0,1,2) = 0.03	 y(1,0,2) = 0.97	 
y(0,2,2) = 0.11	 y(2,0,2) = 0.89	 
y(1,2,2) = 0.37	 y(2,1,2) = 0.63	 
17.837209216898678 11.542567101776465 7
17.837209216898678 14.446853286311136 6
obj:  1.0708408569545524
erro
[(0, 1), (1, 2), (2, 1), (2, 2), (0, 2)]
cliques:  0 mip: 39
C:  25.99998411340893
x(0,0) = 24.84	 x(0,1) = 6.26	 x(0,2) = 17.84	 
x(1,0) = 8.54	 x(1,1) = 2.26	 x(1,2) = 11.54	 
x(2,0) = 21.45	 x(2,1) = 7.45	 x(2,2) = 14.45	 
y(0,1,0) = 0.00	 y(1,0,0) = 1.00	 
y(0,2,0) = 0.08	 y(2,0,0) = 0.92	 
y(1,2,0) = 0.59	 y(2,1,0) = 0.41	 
y(0,1,1) = 0.00	 y(1,0,1) = 1.00	 
y(0,2,1) = 0.33	 y(2,0,1) = 0.67	 
y(1,2,1) = 0.65	 y(2,1,1) = 0.35	 
y(0,1,2) = 0.03	 y(1,0,2) = 0.97	 
y(0,2,2) = 0.11	 y(2,0,2) = 0.89	 
y(1,2,2) = 0.37	 y(2,1,2) = 0.63	 
17.837209216898678 11.542567101776465 7
17.837209216898678 14.446853286311136 6
obj:  1.0708408569545524
erro
[(0, 1), (1, 2), (2, 1), (2, 2), (0, 2)]
cliques:  0 mip: 39
C:  25.99998411340893
x(0,0) = 24.84	 x(0,1) = 6.26	 x(0,2) = 17.84	 
x(1,0) = 8.54	 x(1,1) = 2.26	 x(1,2) = 11.54	 
x(2,0) = 21.45	 x(2,1) = 7.45	 x(2,2) = 14.45	 
y(0,1,0) = 0.00	 y(1,0,0) = 1.00	 
y(0,2,0) = 0.08	 y(2,0,0) = 0.92	 
y(1,2,0) = 0.59	 y(2,1,0) = 0.41	 
y(0,1,1) = 0.00	 y(1,0,1) = 1.00	 
y(0,2,1) = 0.33	 y(2,0,1) = 0.67	 
y(1,2,1) = 0.65	 y(2,1,1) = 0.35	 
y(0,1,2) = 0.03	 y(1,0,2) = 0.97	 
y(0,2,2) = 0.11	 y(2,0,2) = 0.89	 
y(1,2,2) = 0.37	 y(2,1,2) = 0.63	 
17.837209216898678 11.542567101776465 7
17.837209216898678 14.446853286311136 6
obj:  1.0708408569545524
erro
[(0, 1), (1, 2), (2, 1), (2, 2), (0, 2)]
cliques:  0 mip: 39
C:  25.99998411340893
x(0,0) = 24.84	 x(0,1) = 6.26	 x(0,2) = 17.84	 
x(1,0) = 8.54	 x(1,1) = 2.26	 x(1,2) = 11.54	 
x(2,0) = 21.45	 x(2,1) = 7.45	 x(2,2) = 14.45	 
y(0,1,0) = 0.00	 y(1,0,0) = 1.00	 
y(0,2,0) = 0.08	 y(2,0,0) = 0.92	 
y(1,2,0) = 0.59	 y(2,1,0) = 0.41	 
y(0,1,1) = 0.00	 y(1,0,1) = 1.00	 
y(0,2,1) = 0.33	 y(2,0,1) = 0.67	 
y(1,2,1) = 0.65	 y(2,1,1) = 0.35	 
y(0,1,2) = 0.03	 y(1,0,2) = 0.97	 
y(0,2,2) = 0.11	 y(2,0,2) = 0.89	 
y(1,2,2) = 0.37	 y(2,1,2) = 0.63	 
17.837209216898678 11.542567101776465 7
17.837209216898678 14.446853286311136 6
obj:  1.0708408569545524
erro
[(0, 1), (1, 2), (2, 1), (2, 2), (0, 2)]
cliques:  0 mip: 39
C:  25.99998411340893
x(0,0) = 24.84	 x(0,1) = 6.26	 x(0,2) = 17.84	 
x(1,0) = 8.54	 x(1,1) = 2.26	 x(1,2) = 11.54	 
x(2,0) = 21.45	 x(2,1) = 7.45	 x(2,2) = 14.45	 
y(0,1,0) = 0.00	 y(1,0,0) = 1.00	 
y(0,2,0) = 0.08	 y(2,0,0) = 0.92	 
y(1,2,0) = 0.59	 y(2,1,0) = 0.41	 
y(0,1,1) = 0.00	 y(1,0,1) = 1.00	 
y(0,2,1) = 0.33	 y(2,0,1) = 0.67	 
y(1,2,1) = 0.65	 y(2,1,1) = 0.35	 
y(0,1,2) = 0.03	 y(1,0,2) = 0.97	 
y(0,2,2) = 0.11	 y(2,0,2) = 0.89	 
y(1,2,2) = 0.37	 y(2,1,2) = 0.63	 
17.837209216898678 11.542567101776465 7
17.837209216898678 14.446853286311136 6
obj:  1.0708408569545524
erro
[(0, 1), (1, 2), (2, 1), (2, 2), (0, 2)]
cliques:  0 mip: 39
C:  25.99998411340893
x(0,0) = 24.84	 x(0,1) = 6.26	 x(0,2) = 17.84	 
x(1,0) = 8.54	 x(1,1) = 2.26	 x(1,2) = 11.54	 
x(2,0) = 21.45	 x(2,1) = 7.45	 x(2,2) = 14.45	 
y(0,1,0) = 0.00	 y(1,0,0) = 1.00	 
y(0,2,0) = 0.08	 y(2,0,0) = 0.92	 
y(1,2,0) = 0.59	 y(2,1,0) = 0.41	 
y(0,1,1) = 0.00	 y(1,0,1) = 1.00	 
y(0,2,1) = 0.33	 y(2,0,1) = 0.67	 
y(1,2,1) = 0.65	 y(2,1,1) = 0.35	 
y(0,1,2) = 0.03	 y(1,0,2) = 0.97	 
y(0,2,2) = 0.11	 y(2,0,2) = 0.89	 
y(1,2,2) = 0.37	 y(2,1,2) = 0.63	 
17.837209216898678 11.542567101776465 7
17.837209216898678 14.446853286311136 6
obj:  1.0708408569545524
erro
[(0, 1), (1, 2), (2, 1), (2, 2), (0, 2)]
cliques:  0 mip: 39
C:  25.99998411340893
x(0,0) = 24.84	 x(0,1) = 6.26	 x(0,2) = 17.84	 
x(1,0) = 8.54	 x(1,1) = 2.26	 x(1,2) = 11.54	 
x(2,0) = 21.45	 x(2,1) = 7.45	 x(2,2) = 14.45	 
y(0,1,0) = 0.00	 y(1,0,0) = 1.00	 
y(0,2,0) = 0.08	 y(2,0,0) = 0.92	 
y(1,2,0) = 0.59	 y(2,1,0) = 0.41	 
y(0,1,1) = 0.00	 y(1,0,1) = 1.00	 
y(0,2,1) = 0.33	 y(2,0,1) = 0.67	 
y(1,2,1) = 0.65	 y(2,1,1) = 0.35	 
y(0,1,2) = 0.03	 y(1,0,2) = 0.97	 
y(0,2,2) = 0.11	 y(2,0,2) = 0.89	 
y(1,2,2) = 0.37	 y(2,1,2) = 0.63	 
17.837209216898678 11.542567101776465 7
17.837209216898678 14.446853286311136 6
obj:  1.0708408569545524
erro
[(0, 1), (1, 2), (2, 1), (2, 2), (0, 2)]
cliques:  0 mip: 0
iterações: 28 cortes cliques encontrados: 3 mip: 1016 objective:  25.99998411340893
Coin0506I Presolve 65 (-61) rows, 39 (-25) columns and 202 (-86) elements
Clp1000I sum of infeasibilities 3.24924e-06 - average 4.99884e-08, 0 fixed columns
Coin0506I Presolve 65 (0) rows, 39 (0) columns and 202 (0) elements
Clp0029I End of values pass after 39 iterations
Clp0000I Optimal - objective value 15
Clp0000I Optimal - objective value 15
Coin0511I After Postsolve, objective 15, infeasibilities - dual 0 (0), primal 0 (0)
Clp0000I Optimal - objective value 15
Clp0000I Optimal - objective value 15
Clp0000I Optimal - objective value 15
Coin0511I After Postsolve, objective 15, infeasibilities - dual 0 (0), primal 0 (0)
Clp0032I Optimal objective 15 - 0 iterations time 0.012, Presolve 0.00, Idiot 0.00
Coin3009W Conflict graph built in 0.000 seconds, density: 0.171%
